c numero: 69
c nombre: n-50-d-0.5
c densidad: 0.5
p edges 50 624
e 1 2
e 1 3
e 1 5
e 1 6
e 1 8
e 1 9
e 1 11
e 1 12
e 1 14
e 1 18
e 1 19
e 1 20
e 1 21
e 1 22
e 1 24
e 1 25
e 1 31
e 1 36
e 1 40
e 1 41
e 1 43
e 1 44
e 1 45
e 1 46
e 2 3
e 2 5
e 2 6
e 2 7
e 2 8
e 2 11
e 2 12
e 2 14
e 2 15
e 2 16
e 2 17
e 2 21
e 2 22
e 2 23
e 2 26
e 2 28
e 2 29
e 2 30
e 2 33
e 2 34
e 2 35
e 2 36
e 2 37
e 2 41
e 2 43
e 2 44
e 2 45
e 2 46
e 2 47
e 2 48
e 2 50
e 3 4
e 3 5
e 3 6
e 3 7
e 3 9
e 3 12
e 3 15
e 3 17
e 3 18
e 3 19
e 3 23
e 3 24
e 3 25
e 3 26
e 3 28
e 3 35
e 3 36
e 3 37
e 3 40
e 3 41
e 3 44
e 3 49
e 3 50
e 4 9
e 4 10
e 4 13
e 4 14
e 4 16
e 4 17
e 4 18
e 4 21
e 4 23
e 4 24
e 4 25
e 4 26
e 4 31
e 4 33
e 4 34
e 4 37
e 4 40
e 4 43
e 4 44
e 4 45
e 4 47
e 4 48
e 4 49
e 4 50
e 5 6
e 5 8
e 5 9
e 5 11
e 5 14
e 5 15
e 5 16
e 5 20
e 5 23
e 5 24
e 5 25
e 5 27
e 5 30
e 5 31
e 5 35
e 5 39
e 5 46
e 5 47
e 5 48
e 6 7
e 6 10
e 6 13
e 6 16
e 6 17
e 6 21
e 6 22
e 6 24
e 6 27
e 6 31
e 6 32
e 6 34
e 6 35
e 6 37
e 6 42
e 6 43
e 6 44
e 6 45
e 6 46
e 6 47
e 6 49
e 6 50
e 7 8
e 7 10
e 7 11
e 7 13
e 7 14
e 7 23
e 7 27
e 7 34
e 7 35
e 7 36
e 7 38
e 7 40
e 7 42
e 7 43
e 7 45
e 7 47
e 7 48
e 7 50
e 8 9
e 8 11
e 8 13
e 8 14
e 8 15
e 8 18
e 8 19
e 8 22
e 8 25
e 8 26
e 8 27
e 8 28
e 8 31
e 8 33
e 8 37
e 8 38
e 8 40
e 8 41
e 8 44
e 8 46
e 8 49
e 8 50
e 9 10
e 9 11
e 9 12
e 9 13
e 9 14
e 9 17
e 9 19
e 9 20
e 9 21
e 9 24
e 9 26
e 9 27
e 9 28
e 9 29
e 9 31
e 9 32
e 9 34
e 9 35
e 9 36
e 9 37
e 9 39
e 9 40
e 9 43
e 9 44
e 9 46
e 9 48
e 9 49
e 10 11
e 10 12
e 10 16
e 10 17
e 10 18
e 10 19
e 10 21
e 10 22
e 10 26
e 10 27
e 10 28
e 10 30
e 10 31
e 10 40
e 10 41
e 10 43
e 10 44
e 10 46
e 10 49
e 11 13
e 11 14
e 11 16
e 11 17
e 11 19
e 11 20
e 11 23
e 11 24
e 11 26
e 11 27
e 11 28
e 11 29
e 11 30
e 11 32
e 11 34
e 11 37
e 11 39
e 11 40
e 11 41
e 11 42
e 11 44
e 11 45
e 11 46
e 11 48
e 11 50
e 12 14
e 12 18
e 12 19
e 12 20
e 12 21
e 12 26
e 12 27
e 12 30
e 12 31
e 12 32
e 12 33
e 12 35
e 12 36
e 12 37
e 12 39
e 12 41
e 12 42
e 12 50
e 13 14
e 13 15
e 13 18
e 13 20
e 13 22
e 13 24
e 13 26
e 13 27
e 13 28
e 13 31
e 13 32
e 13 33
e 13 34
e 13 36
e 13 38
e 13 39
e 13 41
e 13 43
e 13 44
e 13 45
e 13 48
e 14 15
e 14 16
e 14 19
e 14 21
e 14 23
e 14 25
e 14 28
e 14 35
e 14 36
e 14 39
e 14 41
e 14 42
e 14 43
e 14 46
e 14 47
e 14 49
e 15 16
e 15 17
e 15 18
e 15 22
e 15 24
e 15 25
e 15 26
e 15 29
e 15 31
e 15 32
e 15 34
e 15 37
e 15 40
e 15 41
e 15 43
e 15 44
e 15 46
e 15 47
e 15 49
e 15 50
e 16 18
e 16 19
e 16 21
e 16 22
e 16 23
e 16 24
e 16 25
e 16 26
e 16 27
e 16 32
e 16 33
e 16 37
e 16 38
e 16 39
e 16 41
e 16 42
e 16 45
e 16 46
e 16 49
e 16 50
e 17 23
e 17 24
e 17 25
e 17 29
e 17 30
e 17 32
e 17 33
e 17 37
e 17 38
e 17 39
e 17 40
e 17 41
e 17 43
e 17 44
e 17 46
e 17 50
e 18 21
e 18 24
e 18 25
e 18 32
e 18 33
e 18 36
e 18 43
e 18 44
e 18 45
e 18 47
e 19 20
e 19 21
e 19 22
e 19 23
e 19 24
e 19 25
e 19 27
e 19 28
e 19 30
e 19 31
e 19 33
e 19 35
e 19 37
e 19 38
e 19 40
e 19 42
e 19 43
e 19 47
e 19 48
e 20 23
e 20 25
e 20 26
e 20 28
e 20 29
e 20 30
e 20 31
e 20 32
e 20 35
e 20 36
e 20 38
e 20 39
e 20 40
e 20 42
e 20 45
e 20 46
e 20 48
e 20 50
e 21 22
e 21 24
e 21 25
e 21 27
e 21 28
e 21 29
e 21 32
e 21 33
e 21 34
e 21 35
e 21 36
e 21 37
e 21 41
e 21 42
e 21 43
e 21 44
e 21 45
e 21 46
e 21 47
e 22 23
e 22 26
e 22 27
e 22 30
e 22 31
e 22 32
e 22 34
e 22 37
e 22 45
e 22 46
e 22 48
e 22 49
e 22 50
e 23 27
e 23 29
e 23 30
e 23 33
e 23 34
e 23 36
e 23 41
e 23 44
e 23 45
e 23 50
e 24 25
e 24 27
e 24 28
e 24 29
e 24 30
e 24 34
e 24 41
e 24 46
e 24 47
e 24 49
e 24 50
e 25 26
e 25 27
e 25 28
e 25 30
e 25 31
e 25 35
e 25 39
e 25 42
e 25 46
e 25 50
e 26 28
e 26 30
e 26 31
e 26 32
e 26 33
e 26 35
e 26 36
e 26 37
e 26 41
e 26 43
e 26 44
e 26 45
e 26 46
e 27 28
e 27 31
e 27 32
e 27 34
e 27 37
e 27 38
e 27 39
e 27 40
e 27 41
e 27 43
e 27 44
e 27 46
e 28 32
e 28 36
e 28 37
e 28 38
e 28 39
e 28 40
e 28 49
e 29 32
e 29 35
e 29 36
e 29 37
e 29 40
e 29 46
e 29 48
e 29 49
e 29 50
e 30 32
e 30 34
e 30 37
e 30 40
e 30 41
e 30 42
e 30 43
e 30 45
e 30 48
e 30 49
e 31 33
e 31 35
e 31 37
e 31 40
e 31 43
e 31 44
e 31 46
e 31 48
e 31 49
e 31 50
e 32 33
e 32 34
e 32 35
e 32 38
e 32 40
e 32 42
e 32 46
e 32 47
e 32 48
e 32 50
e 33 35
e 33 38
e 33 42
e 33 43
e 33 44
e 33 45
e 33 47
e 33 49
e 34 36
e 34 37
e 34 38
e 34 39
e 34 41
e 34 43
e 34 44
e 34 46
e 34 47
e 34 48
e 34 49
e 34 50
e 35 39
e 35 40
e 35 41
e 35 44
e 35 45
e 35 46
e 35 49
e 35 50
e 36 42
e 36 43
e 36 45
e 36 46
e 36 47
e 36 49
e 37 40
e 37 42
e 37 46
e 37 47
e 37 49
e 38 39
e 38 40
e 38 41
e 38 43
e 38 45
e 38 46
e 38 49
e 38 50
e 39 40
e 39 41
e 39 44
e 39 45
e 39 47
e 39 50
e 40 42
e 40 43
e 40 47
e 40 49
e 41 43
e 41 46
e 41 47
e 41 48
e 41 50
e 42 45
e 42 46
e 43 45
e 43 46
e 43 47
e 43 50
e 44 47
e 44 48
e 44 49
e 45 47
e 46 47
e 46 50
e 47 48
e 47 50
e 48 49
e 49 50
